p cnf 25 100
-1 -2 -6 0
1 -3 -7 0
1 -4 15 0
-8 1 -5 0
1 -9 23 0
16 -1 10 0
1 11 14 0
-24 1 -12 0
-1 13 -25 0
1 19 17 0
1 -18 -21 0
-1 -20 -22 0
-2 -3 -14 0
-2 4 12 0
2 5 15 0
-2 18 -7 0
-8 -16 2 0
-9 -2 21 0
2 -10 22 0
-17 2 11 0
2 -19 13 0
-25 2 -20 0
-24 -2 -23 0
11 3 -4 0
-10 3 -5 0
-3 -12 6 0
-8 -25 3 0
9 -18 -3 0
16 -3 13 0
3 20 15 0
17 -3 -23 0
-19 -3 -22 0
-24 3 21 0
4 -5 -14 0
16 4 -6 0
-17 -4 -7 0
-8 -4 -21 0
9 4 -22 0
-24 -10 -4 0
4 13 23 0
25 -18 4 0
-19 -4 20 0
24 5 -6 0
12 5 7 0
9 20 -5 0
25 11 -5 0
13 -21 -5 0
-16 5 22 0
17 18 -5 0
-19 -5 23 0
-19 6 7 0
8 -6 14 0
-9 10 6 0
11 -6 -22 0
-20 13 -6 0
17 -6 -15 0
-18 -6 23 0
-25 21 6 0
-8 -13 -7 0
-9 25 7 0
10 -20 7 0
24 11 7 0
-16 -14 7 0
15 23 -7 0
-21 -22 -7 0
-8 9 19 0
-8 10 18 0
-8 11 -12 0
-8 -22 15 0
-8 -17 24 0
8 -20 23 0
-16 9 11 0
-9 12 -15 0
9 -13 17 0
-24 -9 -14 0
10 11 -13 0
10 -19 -12 0
-10 14 23 0
-25 -10 15 0
-17 10 -21 0
19 -11 -15 0
-18 -11 20 0
-11 21 -23 0
-18 12 -13 0
25 -12 14 0
-16 -17 -12 0
21 -12 -20 0
-12 22 -23 0
-13 -14 22 0
-24 13 -15 0
18 14 -15 0
-17 -20 -14 0
-19 21 -14 0
16 21 15 0
16 -18 -19 0
16 24 20 0
-16 -25 -23 0
17 -22 25 0
-24 18 -22 0
24 -25 19 0
